nApps = 81
nRes = 6
nActs = 180
nNetworks = 4

assignmentToResources = [1,1,1,2,2,2,2,1,1,1,1,2,1,1,2,2,1,2,2,2,2,2,2,2,2,1,2,1,1,2,1,1,1,2,1,2,1,1,1,1,2,2,1,2,1,2,2,1,1,2,3,3,3,4,4,4,4,4,3,3,3,3,3,3,3,4,4,4,4,4,4,4,4,4,4,4,4,4,4,4,4,3,3,3,3,4,4,4,4,4,3,3,3,3,4,4,4,4,3,4,4,5,3,6,4,5,4,5,3,6,4,5,3,6,3,6,4,5,3,6,4,5,3,6,4,5,4,5,3,6,6,6,6,5,5,5,5,5,6,6,6,6,6,6,6,5,5,5,5,5,5,5,5,5,5,5,5,5,5,5,5,6,6,6,6,5,5,5,5,5,6,6,6,6,5,5,5,5,6,5];

processingTimes = [88,96,128,128,152,128,112,104,120,64,88,128,136,136,120,136,120,120,128,112,64,136,144,168,80,168,128,128,128,168,120,56,128,168,64,128,128,152,64,136,160,64,128,120,136,64,80,112,112,120,4,4,1500,750,8,2500,3,8,13,1500,5,1500,3,3,8,3,3,3,2500,3,4,4,4,3,4,3,2500,2500,3,5,1500,5,3,5,3,3,3,3,3,3,3000,3,1500,3,2500,3,2500,3,5000,7,3,3,6,6,3,3,5,5,4,4,3,3,6,6,3,3,1500,1500,4,4,5,5,3,3,3,3,8,8,4,4,4,4,1500,750,8,2500,3,8,13,1500,5,1500,3,3,8,3,3,3,2500,3,4,4,4,3,4,3,2500,2500,3,5,1500,5,3,5,3,3,3,3,3,3,3000,3,1500,3,2500,3,2500,3,5000,7];

periods = [100000,20000,10000,5000,20000,100000,50000,10000,20000,10000,10000,20000,20000,10000,20000,20000,10000,20000,20000,20000,20000,20000,10000,10000,10000,10000,100000,20000,10000,10000,10000,100000,20000,50000,20000,10000,20000,20000,20000,10000,10000,20000,10000,100000,100000,100000,20000,50000,100000,20000,100000,10000,10000,5000,20000,20000,100000,50000,10000,10000,10000,10000,20000,20000,20000,20000,20000,20000,20000,20000,20000,20000,20000,20000,20000,10000,100000,100000,100000,10000,10000,10000,100000,100000,20000,50000,50000,10000,10000,10000,20000,20000,10000,10000,100000,100000,20000,20000,100000,20000,20000,20000,100000,100000,100000,100000,50000,50000,50000,50000,20000,20000,20000,20000,20000,20000,10000,10000,20000,20000,20000,20000,20000,20000,20000,20000,10000,10000,10000,10000,100000,10000,10000,5000,20000,20000,100000,50000,10000,10000,10000,10000,20000,20000,20000,20000,20000,20000,20000,20000,20000,20000,20000,20000,20000,10000,100000,100000,100000,10000,10000,10000,100000,100000,20000,50000,50000,10000,10000,10000,20000,20000,10000,10000,100000,100000,20000,20000,100000,20000];

assignmentToClusters = [1,2,3,4,2,5,6,7,8,9,10,11,12,13,14,8,15,14,8,16,17,12,9,18,15,19,20,12,15,21,22,23,12,6,24,25,8,14,2,26,15,27,28,29,5,5,30,6,5,31,32,33,34,35,36,37,38,39,40,41,42,43,44,45,46,47,48,49,50,51,52,53,54,55,56,57,58,59,60,61,62,63,64,65,66,67,68,69,70,71,72,73,74,75,76,77,78,79,80,81,2,2,5,5,5,5,6,6,6,6,8,8,8,8,8,8,9,9,12,12,12,12,14,14,14,14,15,15,15,15,32,33,34,35,36,37,38,39,40,41,42,43,44,45,46,47,48,49,50,51,52,53,54,55,56,57,58,59,60,61,62,63,64,65,66,67,68,69,70,71,72,73,74,75,76,77,78,79,80,81];

precedenceAdjList = [[],[101],[],[],[],[103],[],[],[111],[117],[],[],[],[],[123],[113],[127],[],[115],[],[],[119],[],[],[129],[],[],[12],[16],[],[],[],[121],[109],[],[],[],[125],[1],[],[],[],[],[],[],[5],[],[107],[105],[],[],[],[],[],[],[],[],[],[],[],[],[],[],[],[],[],[],[],[],[],[],[],[],[],[],[],[],[],[],[],[],[],[],[],[],[],[],[],[],[],[],[],[],[],[],[],[],[],[],[],[4],[100],[44],[102],[45],[104],[6],[106],[47],[108],[15],[110],[36],[112],[8],[114],[22],[116],[27],[118],[21],[120],[37],[122],[17],[124],[40],[126],[28],[128],[50],[51],[52],[53],[54],[55],[56],[57],[58],[59],[60],[61],[62],[63],[64],[65],[66],[67],[68],[69],[70],[71],[72],[73],[74],[75],[76],[77],[78],[79],[80],[81],[82],[83],[84],[85],[86],[87],[88],[89],[90],[91],[92],[93],[94],[95],[96],[97],[98],[99]];